c
c start with comments
c
p cnf 28 21
27 -14 27 0
-2 26 0
15 2 7 0
15 -5 -24 -10 0
4 -12 15 8 0
-25 23 0
19 5 0
-13 -20 0
4 -22 6 0
-11 -24 -12 0
17 17 25 0
31 -4 0
13 -23 0
7 1 -28 0
18 -3 22 -17 0
-19 -7 0
20 -21 0
14 -11 2 -3 0
8 -10 28 -11 0
11 -9 0
-26 -26 -18 0